seed= 28032019 ;
N= 90 ;
M= 5 ;
F= 3 ;
K= 25 ;
T= 258 ;

p=[ 10 10 10 10 10 10 10 10 10 10 10 10 10 10 10 10 10 10 10 10 10 10 10 10 10 10 10 10 10 10 10 10 10 10 10 10 10 10 10 10 10 10 10 10 10 10 10 10 10 10 10 10 10 10 10 10 10 10 10 10 16 16 16 16 16 16 16 16 16 16 16 16 16 16 16 16 16 16 16 16 16 16 16 16 16 16 16 16 16 16 ];
r=[ 18 144 13 62 99 81 20 167 37 132 44 135 156 86 69 9 39 63 125 26 111 95 53 53 103 81 166 22 111 33 64 68 106 40 51 89 104 26 138 41 50 22 164 67 159 95 87 25 82 139 116 28 141 117 66 125 135 33 40 95 43 28 167 107 92 122 12 84 7 164 95 8 177 123 75 33 144 21 55 66 1 31 48 42 136 47 32 45 72 21 ];
d=[ 86 131 85 107 111 142 60 18 88 38 33 204 72 44 26 12 52 108 105 26 103 152 31 56 144 154 62 81 106 32 113 85 47 63 39 101 87 71 2 30 70 27 64 59 161 121 100 36 119 96 46 24 202 29 60 7 31 94 109 0 73 72 171 66 53 1 85 138 47 45 125 61 249 184 45 40 137 53 28 41 13 51 3 82 159 87 45 23 10 100 ];
s=[ 6 5 1 10 1 7 4 12 4 12 7 8 7 11 7 7 5 7 6 3 9 8 12 1 9 6 11 5 2 4 7 1 5 6 5 9 3 9 10 3 8 6 12 4 7 11 7 4 7 11 8 8 10 12 1 3 1 4 6 7 12 10 5 12 10 1 1 9 6 12 10 3 2 2 2 12 7 7 4 9 10 12 8 6 3 2 11 5 1 6 ];
w=[ 3 5 1 4 1 3 1 3 1 1 3 1 5 4 4 3 4 1 3 3 1 2 1 5 5 3 2 4 5 2 3 3 3 4 4 2 4 3 2 1 5 4 4 4 2 5 4 2 2 3 4 5 4 5 4 5 3 3 1 5 2 4 4 2 2 4 1 5 2 1 4 2 3 3 1 4 4 3 2 4 4 5 5 3 1 2 3 2 5 4 ];
f=[ 1 1 1 1 1 1 1 1 1 1 1 1 1 1 1 1 1 1 1 1 1 1 1 1 1 1 1 1 1 1 2 2 2 2 2 2 2 2 2 2 2 2 2 2 2 2 2 2 2 2 2 2 2 2 2 2 2 2 2 2 3 3 3 3 3 3 3 3 3 3 3 3 3 3 3 3 3 3 3 3 3 3 3 3 3 3 3 3 3 3 ];

e1=[ 10 10 10 10 10 10 10 10 10 10 10 10 10 10 10 10 10 10 10 10 10 10 10 10 10 10 10 10 10 10 10 10 10 10 10 10 10 10 10 10 10 10 10 10 10 10 10 10 10 10 10 10 10 10 10 10 10 10 10 10 10 10 10 10 10 10 10 10 10 10 10 10 10 10 10 10 10 10 10 10 10 10 10 10 10 10 10 10 10 10 10 10 10 10 10 10 10 10 10 10 10 10 10 10 10 10 10 10 10 10 10 10 10 10 10 10 10 10 10 10 10 10 10 10 10 10 10 10 10 8 8 8 8 8 8 8 8 8 8 8 8 8 8 8 8 8 8 8 8 8 8 8 8 8 8 8 8 8 8 8 8 8 8 8 8 8 8 8 8 8 8 8 8 8 8 8 8 8 8 8 8 8 8 8 8 8 8 8 8 8 8 8 8 8 8 8 8 8 8 8 8 8 8 8 8 8 8 8 8 8 8 8 8 8 8 8 8 8 8 8 8 8 8 8 8 8 8 8 8 8 8 8 8 8 8 8 8 8 8 8 8 8 8 8 8 8 8 8 8 8 8 8 8 8 8 8 8 8 ];
e2=[ 10 10 10 10 10 10 10 10 10 10 10 10 10 10 10 10 10 10 10 10 10 10 10 10 10 10 10 10 10 10 10 10 10 10 10 10 10 10 10 10 10 10 10 10 10 10 10 10 10 10 10 10 10 10 10 10 10 10 10 10 10 10 10 10 10 10 10 10 10 10 10 10 10 10 10 10 10 10 10 10 10 10 10 10 10 10 9 9 9 9 9 9 9 9 9 9 9 9 9 9 9 9 9 9 9 9 9 9 9 9 9 9 9 9 9 9 9 9 9 9 9 9 9 9 9 9 9 9 9 8 8 8 8 8 8 8 8 8 8 8 8 8 8 8 8 8 8 8 8 8 8 8 8 8 8 8 8 8 8 8 8 8 8 8 8 8 8 8 8 8 8 8 8 8 8 8 8 8 8 8 8 8 8 8 8 8 8 8 8 8 8 8 8 8 8 8 8 8 8 8 8 8 8 8 8 8 8 8 8 8 8 8 8 8 8 9 9 9 9 9 9 9 9 9 9 9 9 9 9 9 9 9 9 9 9 9 9 9 9 9 9 9 9 9 9 9 9 9 9 9 9 9 9 9 9 9 9 9 ];